1 -1 -2 0
1 1 -3 0
1 1 -4 0
1 -1 5 0
1 -6 7 0
1 6 -2 0
1 -6 -3 0
1 6 -1 0
1 -6 8 0
1 -6 -5 0
1 -9 10 0
1 9 11 0
1 -9 -12 0
1 9 -2 0
1 9 3 0
1 -9 13 0
1 -9 -14 0
1 9 15 0
1 -9 -8 0
1 -9 5 0
1 12 -11 0
1 12 -16 0
1 -12 -2 0
1 12 -3 0
1 12 13 0
1 -12 -14 0
1 -12 -9 0
1 12 8 0
1 12 -5 0
1 -3 -17 0
1 -3 -18 0
1 3 19 0
1 3 -12 0
1 3 -6 0
1 -3 20 0
1 -3 -21 0
1 3 -22 0
1 3 -9 0
1 -3 1 0
1 5 23 0
1 5 17 0
1 5 18 0
1 5 -19 0
1 -5 12 0
1 5 -6 0
1 5 3 0
1 -5 20 0
1 -5 -21 0
1 5 22 0
1 5 9 0
1 -5 -1 0
1 -2 17 0
1 -2 -24 0
1 -2 -25 0
1 2 -12 0
1 -2 -6 0
1 -2 -26 0
1 2 -20 0
1 2 27 0
1 -2 28 0
1 -2 -9 0
1 2 1 0
1 2 -8 0
1 8 17 0
1 8 -24 0
1 8 -25 0
1 8 12 0
1 8 2 0
1 -8 20 0
1 -8 27 0
1 -8 28 0
1 -8 9 0
1 -8 29 0
1 22 10 0
1 22 11 0
1 22 -19 0
1 -22 3 0
1 -22 -13 0
1 22 -14 0
1 22 -28 0
1 -22 -5 0
1 19 11 0
1 -19 -25 0
1 19 -3 0
1 -19 -13 0
1 19 -14 0
1 -19 -22 0
1 -19 -5 0
1 -21 -10 0
1 -21 11 0
1 -21 18 0
1 21 30 0
1 21 -31 0
1 21 -3 0
1 21 13 0
1 21 -14 0
1 21 -32 0
1 21 -27 0
1 21 33 0
1 21 -5 0
1 18 10 0
1 -18 -11 0
1 -18 -30 0
1 -18 24 0
1 -18 31 0
1 -18 3 0
1 -18 -13 0
1 18 14 0
1 18 21 0
1 18 -33 0
1 -18 5 0
1 14 -34 0
1 14 35 0
1 -14 11 0
1 14 -18 0
1 14 -12 0
1 -14 -36 0
1 -14 37 0
1 14 -38 0
1 14 39 0
1 14 -21 0
1 14 -22 0
1 14 -9 0
1 -14 -40 0
1 11 34 0
1 -11 35 0
1 11 18 0
1 11 19 0
1 11 -36 0
1 -11 37 0
1 11 -38 0
1 11 14 0
1 11 -21 0
1 -11 22 0
1 11 9 0
1 -11 -40 0
1 -13 -10 0
1 13 -17 0
1 -13 -18 0
1 13 -19 0
1 -13 -12 0
1 -13 -36 0
1 -13 41 0
1 13 42 0
1 -13 20 0
1 13 21 0
1 -13 9 0
1 -13 -40 0
1 10 43 0
1 -10 -44 0
1 -10 17 0
1 10 18 0
1 -10 -19 0
1 10 12 0
1 10 36 0
1 10 -13 0
1 -10 -41 0
1 -10 -20 0
1 -10 -21 0
1 -10 22 0
1 -10 -40 0
1 -38 11 0
1 38 30 0
1 -38 -31 0
1 -38 -14 0
1 -38 20 0
1 38 -33 0
1 -35 -11 0
1 -35 17 0
1 -35 30 0
1 -35 31 0
1 -35 -38 0
1 35 -14 0
1 35 32 0
1 -35 33 0
1 -37 -11 0
1 -37 30 0
1 37 -31 0
1 37 -41 0
1 37 14 0
1 37 -32 0
1 -37 -33 0
1 -34 -43 0
1 -34 -11 0
1 34 30 0
1 -34 -31 0
1 -34 -37 0
1 34 14 0
1 34 32 0
1 -34 -33 0
1 -33 -34 0
1 -33 -35 0
1 -33 -18 0
1 33 31 0
1 -33 45 0
1 -33 -38 0
1 33 21 0
1 -33 46 0
1 33 -47 0
1 -31 -34 0
1 31 -35 0
1 31 -18 0
1 31 -48 0
1 -31 45 0
1 31 37 0
1 31 21 0
1 31 -33 0
1 31 -47 0
1 32 -34 0
1 32 35 0
1 -32 18 0
1 -32 30 0
1 -32 -45 0
1 -32 -49 0
1 32 -37 0
1 32 -38 0
1 -32 21 0
1 32 50 0
1 -32 47 0
1 32 51 0
1 32 -40 0
1 -30 -34 0
1 -30 -35 0
1 30 -18 0
1 30 -52 0
1 30 45 0
1 -30 -49 0
1 -30 36 0
1 -30 37 0
1 30 -38 0
1 -30 -21 0
1 30 -32 0
1 -30 47 0
1 -30 51 0
1 30 -40 0
1 4 -53 0
1 4 54 0
1 4 -7 0
1 4 55 0
1 -4 -1 0
1 7 53 0
1 -7 54 0
1 -7 -6 0
1 7 -55 0
1 -7 -4 0
1 -15 53 0
1 15 -54 0
1 15 -56 0
1 15 57 0
1 15 16 0
1 15 -58 0
1 -15 55 0
1 15 -59 0
1 15 60 0
1 -15 9 0
1 16 -54 0
1 16 -56 0
1 16 57 0
1 -16 -58 0
1 16 55 0
1 -16 59 0
1 16 60 0
1 -16 -15 0
1 54 24 0
1 54 -61 0
1 54 25 0
1 -54 -16 0
1 -54 -7 0
1 54 -27 0
1 54 -28 0
1 -54 -15 0
1 -54 -4 0
1 -55 54 0
1 55 -24 0
1 55 -25 0
1 -55 16 0
1 55 -7 0
1 55 62 0
1 -55 27 0
1 55 28 0
1 -55 15 0
1 55 4 0
1 -53 -63 0
1 -53 16 0
1 53 -7 0
1 -53 15 0
1 53 -4 0
1 -58 53 0
1 58 -16 0
1 58 7 0
1 -58 64 0
1 -58 -15 0
1 -58 -4 0
1 28 -54 0
1 28 -56 0
1 28 25 0
1 28 -57 0
1 -28 55 0
1 -28 59 0
1 -28 -60 0
1 28 -22 0
1 28 8 0
1 25 -54 0
1 -25 19 0
1 -25 2 0
1 25 -55 0
1 25 59 0
1 25 -8 0
1 -27 54 0
1 27 -24 0
1 -27 56 0
1 27 57 0
1 -27 65 0
1 -27 -66 0
1 27 -2 0
1 -27 -55 0
1 27 59 0
1 27 21 0
1 27 60 0
1 27 67 0
1 27 -68 0
1 27 8 0
1 -24 60 0
1 -24 -54 0
1 24 -56 0
1 24 57 0
1 24 65 0
1 24 -2 0
1 -24 -55 0
1 24 -59 0
1 24 -27 0
1 -24 67 0
1 -24 68 0
1 24 8 0
1 57 69 0
1 57 60 0
1 57 43 0
1 -57 17 0
1 -57 -24 0
1 -57 -25 0
1 57 -16 0
1 -57 70 0
1 -57 41 0
1 -57 15 0
1 -60 69 0
1 60 43 0
1 -60 17 0
1 60 -24 0
1 -60 25 0
1 -60 -57 0
1 -60 -16 0
1 60 -70 0
1 -60 41 0
1 -60 20 0
1 60 27 0
1 60 71 0
1 -60 -28 0
1 -60 -15 0
1 56 -69 0
1 56 -24 0
1 56 72 0
1 -56 25 0
1 56 -16 0
1 56 -70 0
1 -56 -59 0
1 -56 -27 0
1 56 28 0
1 59 69 0
1 -59 -24 0
1 59 56 0
1 -59 -25 0
1 -59 -16 0
1 59 -70 0
1 59 -27 0
1 -59 -73 0
1 59 28 0
1 -59 15 0
1 -20 -10 0
1 20 -17 0
1 -20 -57 0
1 20 -65 0
1 -20 -66 0
1 20 2 0
1 -20 3 0
1 20 13 0
1 -20 38 0
1 -20 60 0
1 -20 -67 0
1 -20 -68 0
1 20 -8 0
1 -20 5 0
1 -17 10 0
1 17 35 0
1 -17 -57 0
1 -17 -65 0
1 17 -66 0
1 -17 -2 0
1 -17 -3 0
1 17 -13 0
1 17 -20 0
1 17 60 0
1 17 -67 0
1 17 -8 0
1 17 5 0
1 41 -23 0
1 -41 43 0
1 41 65 0
1 41 -66 0
1 41 26 0
1 41 74 0
1 -41 13 0
1 41 37 0
1 41 -60 0
1 -41 -67 0
1 41 -68 0
1 41 -29 0
1 -43 23 0
1 43 -34 0
1 43 -10 0
1 -43 -57 0
1 43 -65 0
1 43 -66 0
1 -43 26 0
1 -43 -74 0
1 -43 -41 0
1 -43 60 0
1 -43 -67 0
1 -43 68 0
1 43 29 0
1 66 -43 0
1 66 -17 0
1 66 -24 0
1 66 -75 0
1 -66 -49 0
1 66 -76 0
1 66 -36 0
1 66 -41 0
1 66 20 0
1 66 -27 0
1 66 -68 0
1 66 -77 0
1 66 51 0
1 66 40 0
1 -68 43 0
1 -68 -24 0
1 -68 66 0
1 68 75 0
1 -68 -49 0
1 -68 36 0
1 68 -78 0
1 68 41 0
1 -68 20 0
1 68 -27 0
1 68 -77 0
1 68 -51 0
1 68 40 0
1 65 -69 0
1 65 -43 0
1 65 -79 0
1 65 -75 0
1 65 80 0
1 65 70 0
1 -65 -41 0
1 -65 -20 0
1 65 67 0
1 65 -77 0
1 65 81 0
1 67 69 0
1 67 43 0
1 67 -17 0
1 -67 -24 0
1 67 65 0
1 67 -75 0
1 -67 -80 0
1 -67 70 0
1 -67 41 0
1 67 -20 0
1 67 -77 0
1 -67 -81 0
1 -36 23 0
1 36 10 0
1 36 -11 0
1 -36 66 0
1 36 -26 0
1 -36 -70 0
1 -36 -13 0
1 36 -74 0
1 36 -14 0
1 36 32 0
1 -36 68 0
1 36 -29 0
1 -36 40 0
1 -40 69 0
1 -40 -10 0
1 40 -23 0
1 -40 11 0
1 -40 -30 0
1 40 66 0
1 -40 26 0
1 -40 36 0
1 40 -74 0
1 40 -13 0
1 40 14 0
1 40 32 0
1 40 68 0
1 -40 -29 0
1 49 -23 0
1 49 -44 0
1 -49 -82 0
1 -49 30 0
1 -49 -66 0
1 -49 80 0
1 -49 26 0
1 49 74 0
1 49 -42 0
1 -49 -39 0
1 49 32 0
1 49 -68 0
1 -49 -51 0
1 49 -29 0
1 -51 -23 0
1 51 44 0
1 -51 82 0
1 51 -30 0
1 -51 -66 0
1 51 -49 0
1 -51 26 0
1 -51 -74 0
1 51 -42 0
1 51 -39 0
1 51 -32 0
1 -51 29 0
1 -51 -68 0
1 74 -83 0
1 74 -84 0
1 74 -45 0
1 74 -49 0
1 74 36 0
1 74 3 0
1 -74 41 0
1 -74 85 0
1 74 -86 0
1 -74 47 0
1 74 -51 0
1 -74 40 0
1 23 -43 0
1 -23 -83 0
1 23 84 0
1 -23 45 0
1 23 -49 0
1 23 -36 0
1 23 74 0
1 23 -41 0
1 -23 85 0
1 -23 86 0
1 -23 47 0
1 -23 -51 0
1 -23 -40 0
1 -26 43 0
1 26 83 0
1 -26 87 0
1 -26 75 0
1 -26 49 0
1 -26 -2 0
1 26 36 0
1 -26 41 0
1 -26 85 0
1 -26 -88 0
1 -26 -51 0
1 -26 -29 0
1 -26 -40 0
1 29 43 0
1 29 83 0
1 -29 87 0
1 29 -75 0
1 -29 49 0
1 29 26 0
1 29 -36 0
1 -29 41 0
1 29 -8 0
1 29 -85 0
1 29 -88 0
1 -29 -77 0
1 -29 51 0
1 -29 -40 0
1 -45 -23 0
1 -45 -44 0
1 -45 30 0
1 45 -82 0
1 -45 31 0
1 -45 -75 0
1 -45 -74 0
1 45 -42 0
1 -45 39 0
1 -45 -32 0
1 45 -33 0
1 -45 -47 0
1 -47 23 0
1 -47 -82 0
1 -47 30 0
1 -47 -31 0
1 47 45 0
1 47 -74 0
1 -47 42 0
1 -47 39 0
1 47 -32 0
1 -47 33 0
1 -47 77 0
1 -84 44 0
1 -84 82 0
1 84 -52 0
1 84 -86 0
1 -84 48 0
1 84 -87 0
1 -84 74 0
1 84 42 0
1 84 39 0
1 84 -50 0
1 -84 -46 0
1 86 -23 0
1 86 44 0
1 -86 -82 0
1 86 52 0
1 86 -48 0
1 -86 -84 0
1 86 -74 0
1 -86 42 0
1 86 39 0
1 86 -50 0
1 86 -46 0
1 -86 88 0
1 39 -82 0
1 39 89 0
1 -39 -84 0
1 -39 -45 0
1 39 -49 0
1 -39 -14 0
1 -39 90 0
1 39 -91 0
1 -39 47 0
1 -39 51 0
1 -82 -11 0
1 82 89 0
1 -82 92 0
1 82 45 0
1 -82 49 0
1 82 90 0
1 82 -91 0
1 82 -86 0
1 -82 -47 0
1 82 51 0
1 -42 -44 0
1 -42 93 0
1 42 83 0
1 42 -84 0
1 -42 -45 0
1 -42 49 0
1 42 13 0
1 42 94 0
1 -42 85 0
1 -42 86 0
1 42 -47 0
1 42 51 0
1 44 -10 0
1 -44 83 0
1 44 -84 0
1 -44 45 0
1 44 49 0
1 -44 42 0
1 -44 94 0
1 -44 86 0
1 44 47 0
1 -44 51 0
1 92 -82 0
1 92 -52 0
1 92 -48 0
1 92 83 0
1 92 -50 0
1 -92 -39 0
1 -92 -91 0
1 -92 46 0
1 91 -82 0
1 -91 52 0
1 -91 -48 0
1 -91 -39 0
1 91 -50 0
1 91 -85 0
1 91 46 0
1 89 82 0
1 -89 52 0
1 -89 -93 0
1 89 -48 0
1 89 90 0
1 -89 39 0
1 -89 46 0
1 -90 82 0
1 -90 89 0
1 -90 -52 0
1 -90 48 0
1 90 -39 0
1 -90 94 0
1 90 50 0
1 90 -46 0
1 -46 89 0
1 -46 -92 0
1 -46 48 0
1 46 -84 0
1 -46 90 0
1 -46 -91 0
1 46 33 0
1 46 86 0
1 48 89 0
1 -48 31 0
1 48 -92 0
1 -48 -84 0
1 48 -90 0
1 -48 -91 0
1 -48 -86 0
1 48 -46 0
1 -50 89 0
1 -50 52 0
1 -50 -84 0
1 50 -90 0
1 -52 -30 0
1 52 -92 0
1 -52 84 0
1 -52 -90 0
1 -52 91 0
1 52 86 0
1 -70 69 0
1 70 -63 0
1 70 61 0
1 70 56 0
1 -70 -57 0
1 70 65 0
1 70 36 0
1 70 -64 0
1 -70 62 0
1 70 -59 0
1 -70 60 0
1 70 67 0
1 -69 -63 0
1 69 61 0
1 69 56 0
1 -69 -57 0
1 69 -65 0
1 -69 -70 0
1 69 62 0
1 69 -59 0
1 -69 60 0
1 69 67 0
1 69 -40 0
1 -80 61 0
1 80 -72 0
1 80 -95 0
1 -80 -65 0
1 80 49 0
1 -80 -64 0
1 80 -73 0
1 -80 -71 0
1 -80 81 0
1 81 63 0
1 -81 61 0
1 81 -72 0
1 -81 65 0
1 81 -80 0
1 -81 -64 0
1 -81 -62 0
1 -81 71 0
1 81 67 0
1 -81 51 0
1 61 -69 0
1 -61 54 0
1 61 -87 0
1 -61 75 0
1 -61 -80 0
1 -61 70 0
1 -61 62 0
1 61 77 0
1 61 -81 0
1 62 69 0
1 62 61 0
1 62 87 0
1 -62 75 0
1 62 80 0
1 -62 70 0
1 -62 -55 0
1 62 -88 0
1 -62 -77 0
1 -62 -81 0
1 63 -69 0
1 63 -53 0
1 -63 80 0
1 -63 -70 0
1 63 64 0
1 -63 -81 0
1 64 -69 0
1 64 63 0
1 64 80 0
1 -64 -70 0
1 -64 -58 0
1 64 -81 0
1 -75 61 0
1 -75 -72 0
1 -75 -65 0
1 -75 66 0
1 75 -26 0
1 75 -62 0
1 75 73 0
1 -75 71 0
1 -75 68 0
1 75 -77 0
1 75 -29 0
1 -77 -72 0
1 77 95 0
1 77 65 0
1 77 -68 0
1 -77 75 0
1 77 26 0
1 -77 -62 0
1 -77 -73 0
1 77 71 0
1 77 -67 0
1 77 29 0
1 -87 96 0
1 -87 72 0
1 87 -95 0
1 -87 84 0
1 87 -79 0
1 -87 -26 0
1 -87 -62 0
1 87 -73 0
1 87 71 0
1 87 -88 0
1 88 61 0
1 -88 -72 0
1 88 -95 0
1 88 -87 0
1 88 79 0
1 -88 76 0
1 88 -26 0
1 88 -62 0
1 -88 -73 0
1 -88 -71 0
1 88 86 0
1 -88 78 0
1 88 -29 0
1 95 93 0
1 95 -83 0
1 95 -87 0
1 -95 75 0
1 95 -80 0
1 95 94 0
1 -95 85 0
1 -95 88 0
1 -95 77 0
1 -95 -81 0
1 71 93 0
1 -71 -83 0
1 71 95 0
1 71 87 0
1 71 -75 0
1 71 -80 0
1 -71 -94 0
1 -71 -60 0
1 -71 85 0
1 -71 -88 0
1 -71 -77 0
1 72 56 0
1 -72 -87 0
1 -72 75 0
1 -72 -80 0
1 72 -88 0
1 72 -77 0
1 -72 -81 0
1 73 72 0
1 -73 87 0
1 73 -75 0
1 73 -80 0
1 -73 -59 0
1 -73 -88 0
1 73 77 0
1 73 81 0
1 -83 23 0
1 -83 44 0
1 -83 71 0
1 83 92 0
1 -83 95 0
1 -83 79 0
1 -83 76 0
1 83 26 0
1 -83 -74 0
1 83 -42 0
1 83 85 0
1 -83 -96 0
1 83 78 0
1 85 -23 0
1 -85 44 0
1 85 -95 0
1 -85 -79 0
1 -85 -76 0
1 85 -26 0
1 -85 74 0
1 85 -42 0
1 85 -91 0
1 -85 -71 0
1 85 -96 0
1 85 -29 0
1 93 -44 0
1 93 89 0
1 -93 -95 0
1 -93 79 0
1 -93 -76 0
1 93 -42 0
1 -93 94 0
1 93 71 0
1 93 -96 0
1 93 -78 0
1 94 44 0
1 -94 93 0
1 -94 95 0
1 94 79 0
1 94 -76 0
1 -94 42 0
1 -94 -90 0
1 94 71 0
1 94 96 0
1 -94 -78 0
1 76 93 0
1 76 -83 0
1 -76 87 0
1 -76 -66 0
1 -76 -88 0
1 -76 -78 0
1 78 93 0
1 78 -83 0
1 -78 87 0
1 78 -76 0
1 78 -94 0
1 78 85 0
1 -78 -88 0
1 -78 68 0
1 79 93 0
1 79 96 0
1 79 -83 0
1 -79 -65 0
1 79 -87 0
1 79 -94 0
1 -79 85 0
1 -79 -88 0
1 96 -93 0
1 96 -83 0
1 96 87 0
1 -96 79 0
1 96 -94 0
1 96 -85 0
1 -96 67 0
1 96 88 0
